p tw 121 321
0 1
0 2
0 3
0 4
0 5
0 6
0 7
0 28
1 2
1 3
1 4
1 5
1 6
1 7
1 69
2 3
2 4
2 5
2 6
2 7
2 40
3 4
3 5
3 6
3 7
3 105
4 5
4 6
4 7
4 22
4 70
4 71
5 6
5 7
5 24
5 88
5 107
6 7
6 25
7 23
7 87
7 106
8 9
8 10
8 11
8 12
8 13
8 59
8 61
8 92
8 93
9 10
9 11
9 12
9 13
9 58
9 63
9 96
10 11
10 12
10 13
10 60
10 62
10 72
10 73
10 74
11 12
11 13
11 29
12 13
12 64
13 17
13 108
14 15
14 16
14 85
14 103
15 16
15 19
15 82
15 86
15 89
15 90
15 91
16 43
16 44
17 18
17 108
18 103
19 20
19 82
19 86
19 89
19 90
19 91
20 99
21 22
21 37
22 70
22 71
23 24
23 25
23 87
23 106
24 25
24 88
24 107
26 27
26 57
27 32
27 83
27 109
27 112
27 115
27 119
27 120
28 40
29 108
30 31
30 84
30 118
31 79
32 33
32 83
32 109
32 112
32 115
32 119
32 120
33 111
33 117
34 35
34 36
34 91
34 104
35 36
35 43
35 84
35 85
35 86
36 90
36 118
37 100
38 39
38 47
38 49
38 52
38 53
38 54
39 46
39 48
39 68
39 80
41 42
41 54
41 78
41 80
41 102
41 114
42 77
43 44
43 84
43 85
43 86
44 89
44 99
45 46
45 47
45 50
45 101
45 102
46 47
46 48
46 68
46 80
47 49
47 52
47 53
47 54
48 49
48 50
48 51
48 68
48 80
49 50
49 51
49 52
49 53
49 54
50 51
50 101
50 102
51 114
52 53
52 54
52 101
53 54
53 67
53 68
54 78
54 80
54 102
54 114
55 56
55 83
56 120
57 66
57 95
57 119
58 59
58 60
58 63
58 96
59 60
59 61
59 92
59 93
60 62
60 72
60 73
60 74
61 62
61 63
61 64
61 92
61 93
62 63
62 64
62 72
62 73
62 74
63 64
63 96
65 66
65 75
66 95
66 119
67 68
67 100
68 80
69 71
70 71
70 105
72 73
72 74
72 93
72 113
73 74
73 92
74 96
75 76
76 113
77 78
77 79
78 79
78 80
78 102
78 114
80 102
80 114
81 82
81 104
82 86
82 89
82 90
82 91
83 109
83 112
83 115
83 119
83 120
84 85
84 86
84 118
85 86
85 103
86 89
86 90
86 91
87 88
87 106
88 107
89 90
89 91
89 99
90 91
90 118
91 104
92 93
93 113
94 95
94 112
95 119
97 98
97 109
97 110
97 111
98 115
98 116
98 117
101 102
102 114
106 107
109 110
109 111
109 112
109 115
109 119
109 120
110 111
110 116
111 117
112 115
112 119
112 120
115 116
115 117
115 119
115 120
116 117
119 120
